clingo version 5.5.2
Reading from ...nt/beegfs/home/jubruns/encoding/mif.lp ...
Solving...
Answer: 1
move(1,(15,14),(15,15),1) move(1,(15,15),(15,16),2) move(1,(15,16),(16,16),3) move(2,(4,3),(4,4),2)
SATISFIABLE

Models       : 1+
Calls        : 1
Time         : 0.115s (Solving: 0.00s 1st Model: 0.00s Unsat: 0.00s)
CPU Time     : 0.093s

Choices      : 270     
Conflicts    : 2        (Analyzed: 2)
Restarts     : 0       
Model-Level  : 268.0   
Problems     : 1        (Average Length: 0.00 Splits: 0)
Lemmas       : 25       (Deleted: 0)
  Binary     : 0        (Ratio:   0.00%)
  Ternary    : 3        (Ratio:  12.00%)
  Conflict   : 2        (Average Length:    1.0 Ratio:   8.00%) 
  Loop       : 23       (Average Length:   30.0 Ratio:  92.00%) 
  Other      : 0        (Average Length:    0.0 Ratio:   0.00%) 
Backjumps    : 2        (Average:  1.00 Max:   1 Sum:      2)
  Executed   : 2        (Average:  1.00 Max:   1 Sum:      2 Ratio: 100.00%)
  Bounded    : 0        (Average:  0.00 Max:   0 Sum:      0 Ratio:   0.00%)

Rules        : 50828    (Original: 34598)
  Choice     : 1076    
  Heuristic  : 4717     (Original: 8618)
Atoms        : 26728    (Original: 18690 Auxiliary: 8038)
Bodies       : 26065    (Original: 16907)
  Count      : 0        (Original: 1670)
Equivalences : 23484    (Atom=Atom: 2227 Body=Body: 2119 Other: 19138)
Tight        : No       (SCCs: 2 Non-Hcfs: 0 Nodes: 5951 Gammas: 0)
Variables    : 23554    (Eliminated:    0 Frozen: 2978)
Constraints  : 64222    (Binary:  77.5% Ternary:  18.8% Other:   3.7%)

